
Gurobi 9.1.2 (linux64) logging started Thu Jun 16 21:50:33 2022

Changed value of parameter LogFile to ls2_sym_v-(2, 7).log
   Prev:   Default: 
Changed value of parameter MIPFocus to 1
   Prev: 0  Min: 0  Max: 3  Default: 0
Changed value of parameter TimeLimit to 10800.0
   Prev: inf  Min: 0.0  Max: inf  Default: inf
Warning: variable name "X[(4, 3),(2, 3)]" has a space
Warning: constraint name "flow-constr-t0-v(4, 0)" has a space
Warning: to let Gurobi read it back, use rlp format
Gurobi Optimizer version 9.1.2 build v9.1.2rc0 (linux64)
Thread count: 32 physical cores, 64 logical processors, using up to 32 threads
Optimize a model with 4535 rows, 4096 columns and 15432 nonzeros
Model fingerprint: 0x9089d7d0
Variable types: 512 continuous, 3584 integer (3584 binary)
Coefficient statistics:
  Matrix range     [1e+00, 7e+04]
  Objective range  [1e-01, 1e-01]
  Bounds range     [1e+00, 3e+04]
  RHS range        [1e+00, 7e+04]
Presolve removed 531 rows and 568 columns
Presolve time: 0.15s
Presolved: 4004 rows, 3528 columns, 22080 nonzeros
Variable types: 512 continuous, 3016 integer (3016 binary)
Found heuristic solution: objective 2169.8749998

Root relaxation: objective 6.400000e+01, 135 iterations, 0.00 seconds

    Nodes    |    Current Node    |     Objective Bounds      |     Work
 Expl Unexpl |  Obj  Depth IntInf | Incumbent    BestBd   Gap | It/Node Time

     0     0   64.00000    0   44 2169.87500   64.00000  97.1%     -    0s
H    0     0                    2153.8749998   64.00000  97.0%     -    0s
     0     0   64.00000    0   52 2153.87500   64.00000  97.0%     -    0s
H    0     0                     190.5000000   64.00000  66.4%     -    0s
H    0     0                     146.8750000   64.00000  56.4%     -    0s
H    0     0                      94.3750000   64.00000  32.2%     -    0s
H    0     0                      93.0000000   64.00000  31.2%     -    0s
H    0     0                      78.7500000   64.00000  18.7%     -    0s
H    0     0                      78.6250000   64.00000  18.6%     -    0s
     0     0   64.00000    0   56   78.62500   64.00000  18.6%     -    0s
     0     0   64.00000    0   18   78.62500   64.00000  18.6%     -    0s
H    0     0                      74.9250000   64.00000  14.6%     -    0s
     0     0   64.00000    0   20   74.92500   64.00000  14.6%     -    1s
H    0     0                      71.4500000   64.00000  10.4%     -    1s
     0     0   64.00000    0   28   71.45000   64.00000  10.4%     -    1s
     0     0   64.00000    0   24   71.45000   64.00000  10.4%     -    1s
H    0     0                      70.8750000   64.00000  9.70%     -    1s
     0     0   64.00000    0   51   70.87500   64.00000  9.70%     -    1s
     0     0   64.00000    0   15   70.87500   64.00000  9.70%     -    1s
H    0     0                      69.6250000   64.00000  8.08%     -    2s
     0     2   64.00000    0   15   69.62500   64.00000  8.08%     -    2s
H   31    64                      69.5000000   64.00000  7.91%  20.1    3s
H   36    64                      69.2500000   64.00000  7.58%  17.4    3s
H   43    64                      69.0000000   64.00000  7.25%  14.8    3s
H   95   128                      67.2500000   64.00000  4.83%  10.9    4s
H  127   160                      67.1250000   64.00000  4.66%   9.4    4s
H  128   160                      66.8750000   64.00000  4.30%   9.4    4s
H  134   160                      66.7500000   64.00000  4.12%   9.1    4s
H  141   160                      66.6250000   64.00000  3.94%   9.0    4s
   159   192   64.00000    9   19   66.62500   64.00000  3.94%   8.7    5s
H  162   192                      66.5000000   64.00000  3.76%   8.6    5s
H  192   223                      66.0000000   64.00000  3.03%   7.9    7s
H  204   223                      65.7500000   64.00000  2.66%  26.0    7s
H  448   457                      65.6000000   64.00000  2.44%  39.4    9s
H  449   457                      65.5000000   64.00000  2.29%  39.3    9s
H  477   457                      65.4166667   64.00000  2.17%  37.4    9s
   482   844   64.00000   19   18   65.41667   64.00000  2.17%  37.0   10s
H  612   844                      65.0625000   64.00000  1.63%  36.8   10s
H  953  1519                      65.0000000   64.00000  1.54%  44.4   12s
H 1351  1519                      64.8333333   64.00000  1.29%  43.4   12s
H 1827  1570                      64.5000000   64.00000  0.78%  46.4   16s
H 1828  1570                      64.4166667   64.00000  0.65%  46.4   16s
H 1831  1570                      64.2500000   64.00000  0.39%  46.4   16s
H 1836  1570                      64.1250000   64.00000  0.19%  46.3   16s
H 1975  3244                      64.0000000   64.00000  0.00%  45.0   19s

Cutting planes:
  Cover: 18
  Implied bound: 21
  Clique: 1
  MIR: 6
  Flow cover: 29
  Relax-and-lift: 18

Explored 4406 nodes (205750 simplex iterations) in 19.23 seconds
Thread count was 32 (of 64 available processors)

Solution count 10: 64 64.125 64.25 ... 65.5

Optimal solution found (tolerance 1.00e-04)
Best objective 6.400000000000e+01, best bound 6.400000000000e+01, gap 0.0000%
